I40: [2,10,19,28,29,34,48,61,67,69,87,109,112,113,114,115,116,127,130,135,139,140,143,144,147,157,159,161,162,164,167,169,173,183,185,189,193,196,199,203,208,209,210,214,220,221,225,231,233,239,241,244,247,251,253,256,257,261,266,269,271,276,279,281,284,286]

I150:[2,28,34,61,67,69,87,109,113,114,115,116,127,130,135,139,140,144,147,159,161,164,167,169,173,183,189,193,196,199,203,208,209,210,214,220,221,225,233,239,241,244,247,251,253,256,257,261,266,269,271,281,284]
